nbObjet = 10;
poidsMax = 800.0;
valeur = [277, 407, 114, 447, 914, 743, 106, 237, 398, 480];
poids = [150.5, 3.9, 567.0, 124.4, 302.3, 279.6, 134.0, 740.7, 511.7, 265.4];
incomp = [[0, 1, 1, 1, 1, 1, 1, 0, 1, 1], [1, 0, 1, 1, 1, 0, 0, 1, 1, 1], [1, 1, 0, 1, 1, 1, 1, 1, 1, 1], [1, 1, 1, 0, 0, 1, 0, 1, 1, 1], [1, 1, 1, 0, 0, 1, 1, 0, 1, 1], [1, 0, 1, 1, 1, 0, 0, 1, 1, 1], [1, 0, 1, 0, 1, 0, 0, 1, 0, 1], [0, 1, 1, 1, 0, 1, 1, 0, 1, 1], [1, 1, 1, 1, 1, 1, 0, 1, 0, 1], [1, 1, 1, 1, 1, 1, 1, 1, 1, 0]];